sat
(:SPACER-cex-depth                    2
 :SPACER-inductive-gen                1
 :SPACER-inductive-gen-weaken-fail    1
 :SPACER-inductive-gen-weaken-success 1
 :SPACER-max-depth                    2
 :SPACER-max-query-lvl                2
 :SPACER-num-active-lemmas            2
 :SPACER-num-is_invariant             2
 :SPACER-num-lemmas                   3
 :SPACER-num-pobs                     2
 :SPACER-num-queries                  2
 :SPACER-num-reach-queries            2
 :SPACER-num-reuse-reach-facts        1
 :added-eqs                           160
 :arith-assert-diseq                  10
 :arith-assert-lower                  124
 :arith-assert-upper                  84
 :arith-bound-prop                    20
 :arith-conflicts                     4
 :arith-eq-adapter                    40
 :arith-fixed-eqs                     16
 :arith-num-rows                      20
 :arith-offset-eqs                    14
 :arith-pivots                        20
 :arith-row-summations                26
 :arith-tableau-max-columns           58
 :arith-tableau-max-rows              20
 :conflicts                           20
 :decisions                           72
 :del-clause                          42
 :final-checks                        14
 :iuc_solver.num_proxies              6
 :max-memory                          30.23
 :memory                              30.23
 :mk-bool-var                         284
 :mk-clause                           278
 :num-allocs                          4302524
 :num-checks                          28
 :pool_solver.checks                  14
 :pool_solver.checks.sat              7
 :propagations                        388
 :rlimit-count                        4364
 :time                                0.02
 :time.pool_solver.smt.total          0.00
 :time.pool_solver.smt.total.sat      0.00
 :time.spacer.init_rules              0.00
 :time.spacer.solve                   0.01
 :time.spacer.solve.reach             0.01)
(:max-memory   30.23
 :memory       30.23
 :num-allocs   4302524
 :rlimit-count 4364
 :time         0.02
 :total-time   0.04)
